certificates/rado_a15_c174_N52.cnf
c Rad2 upper bound instance: x1 + 15*x2 - x3 = 174, interval [1,52]
p cnf 52 356
1 7 12 0
-1 -7 -12 0
1 13 22 0
-1 -13 -22 0
1 14 37 0
-1 -14 -37 0
1 15 52 0
-1 -15 -52 0
2 8 12 0
-2 -8 -12 0
2 13 23 0
-2 -13 -23 0
2 14 38 0
-2 -14 -38 0
3 9 12 0
-3 -9 -12 0
3 13 24 0
-3 -13 -24 0
3 14 39 0
-3 -14 -39 0
4 10 12 0
-4 -10 -12 0
4 13 25 0
-4 -13 -25 0
4 14 40 0
-4 -14 -40 0
5 11 12 0
-5 -11 -12 0
5 13 26 0
-5 -13 -26 0
5 14 41 0
-5 -14 -41 0
6 12 0
-6 -12 0
6 13 27 0
-6 -13 -27 0
6 14 42 0
-6 -14 -42 0
7 12 13 0
-7 -12 -13 0
7 13 28 0
-7 -13 -28 0
7 14 43 0
-7 -14 -43 0
8 12 14 0
-8 -12 -14 0
8 13 29 0
-8 -13 -29 0
8 14 44 0
-8 -14 -44 0
9 12 15 0
-9 -12 -15 0
9 13 30 0
-9 -13 -30 0
9 14 45 0
-9 -14 -45 0
1 10 11 0
-1 -10 -11 0
10 12 16 0
-10 -12 -16 0
10 13 31 0
-10 -13 -31 0
10 14 46 0
-10 -14 -46 0
2 11 0
-2 -11 0
11 12 17 0
-11 -12 -17 0
11 13 32 0
-11 -13 -32 0
11 14 47 0
-11 -14 -47 0
3 11 12 0
-3 -11 -12 0
12 18 0
-12 -18 0
12 13 33 0
-12 -13 -33 0
12 14 48 0
-12 -14 -48 0
4 11 13 0
-4 -11 -13 0
12 13 19 0
-12 -13 -19 0
13 34 0
-13 -34 0
13 14 49 0
-13 -14 -49 0
5 11 14 0
-5 -11 -14 0
12 14 20 0
-12 -14 -20 0
13 14 35 0
-13 -14 -35 0
14 50 0
-14 -50 0
6 11 15 0
-6 -11 -15 0
12 15 21 0
-12 -15 -21 0
13 15 36 0
-13 -15 -36 0
14 15 51 0
-14 -15 -51 0
7 11 16 0
-7 -11 -16 0
12 16 22 0
-12 -16 -22 0
13 16 37 0
-13 -16 -37 0
14 16 52 0
-14 -16 -52 0
8 11 17 0
-8 -11 -17 0
12 17 23 0
-12 -17 -23 0
13 17 38 0
-13 -17 -38 0
9 11 18 0
-9 -11 -18 0
12 18 24 0
-12 -18 -24 0
13 18 39 0
-13 -18 -39 0
10 11 19 0
-10 -11 -19 0
12 19 25 0
-12 -19 -25 0
13 19 40 0
-13 -19 -40 0
11 20 0
-11 -20 0
12 20 26 0
-12 -20 -26 0
13 20 41 0
-13 -20 -41 0
11 12 21 0
-11 -12 -21 0
12 21 27 0
-12 -21 -27 0
13 21 42 0
-13 -21 -42 0
11 13 22 0
-11 -13 -22 0
12 22 28 0
-12 -22 -28 0
13 22 43 0
-13 -22 -43 0
11 14 23 0
-11 -14 -23 0
12 23 29 0
-12 -23 -29 0
13 23 44 0
-13 -23 -44 0
11 15 24 0
-11 -15 -24 0
12 24 30 0
-12 -24 -30 0
13 24 45 0
-13 -24 -45 0
1 10 25 0
-1 -10 -25 0
11 16 25 0
-11 -16 -25 0
12 25 31 0
-12 -25 -31 0
13 25 46 0
-13 -25 -46 0
2 10 26 0
-2 -10 -26 0
11 17 26 0
-11 -17 -26 0
12 26 32 0
-12 -26 -32 0
13 26 47 0
-13 -26 -47 0
3 10 27 0
-3 -10 -27 0
11 18 27 0
-11 -18 -27 0
12 27 33 0
-12 -27 -33 0
13 27 48 0
-13 -27 -48 0
4 10 28 0
-4 -10 -28 0
11 19 28 0
-11 -19 -28 0
12 28 34 0
-12 -28 -34 0
13 28 49 0
-13 -28 -49 0
5 10 29 0
-5 -10 -29 0
11 20 29 0
-11 -20 -29 0
12 29 35 0
-12 -29 -35 0
13 29 50 0
-13 -29 -50 0
6 10 30 0
-6 -10 -30 0
11 21 30 0
-11 -21 -30 0
12 30 36 0
-12 -30 -36 0
13 30 51 0
-13 -30 -51 0
7 10 31 0
-7 -10 -31 0
11 22 31 0
-11 -22 -31 0
12 31 37 0
-12 -31 -37 0
13 31 52 0
-13 -31 -52 0
8 10 32 0
-8 -10 -32 0
11 23 32 0
-11 -23 -32 0
12 32 38 0
-12 -32 -38 0
9 10 33 0
-9 -10 -33 0
11 24 33 0
-11 -24 -33 0
12 33 39 0
-12 -33 -39 0
10 34 0
-10 -34 0
11 25 34 0
-11 -25 -34 0
12 34 40 0
-12 -34 -40 0
10 11 35 0
-10 -11 -35 0
11 26 35 0
-11 -26 -35 0
12 35 41 0
-12 -35 -41 0
10 12 36 0
-10 -12 -36 0
11 27 36 0
-11 -27 -36 0
12 36 42 0
-12 -36 -42 0
10 13 37 0
-10 -13 -37 0
11 28 37 0
-11 -28 -37 0
12 37 43 0
-12 -37 -43 0
10 14 38 0
-10 -14 -38 0
11 29 38 0
-11 -29 -38 0
12 38 44 0
-12 -38 -44 0
10 15 39 0
-10 -15 -39 0
11 30 39 0
-11 -30 -39 0
12 39 45 0
-12 -39 -45 0
1 9 40 0
-1 -9 -40 0
10 16 40 0
-10 -16 -40 0
11 31 40 0
-11 -31 -40 0
12 40 46 0
-12 -40 -46 0
2 9 41 0
-2 -9 -41 0
10 17 41 0
-10 -17 -41 0
11 32 41 0
-11 -32 -41 0
12 41 47 0
-12 -41 -47 0
3 9 42 0
-3 -9 -42 0
10 18 42 0
-10 -18 -42 0
11 33 42 0
-11 -33 -42 0
12 42 48 0
-12 -42 -48 0
4 9 43 0
-4 -9 -43 0
10 19 43 0
-10 -19 -43 0
11 34 43 0
-11 -34 -43 0
12 43 49 0
-12 -43 -49 0
5 9 44 0
-5 -9 -44 0
10 20 44 0
-10 -20 -44 0
11 35 44 0
-11 -35 -44 0
12 44 50 0
-12 -44 -50 0
6 9 45 0
-6 -9 -45 0
10 21 45 0
-10 -21 -45 0
11 36 45 0
-11 -36 -45 0
12 45 51 0
-12 -45 -51 0
7 9 46 0
-7 -9 -46 0
10 22 46 0
-10 -22 -46 0
11 37 46 0
-11 -37 -46 0
12 46 52 0
-12 -46 -52 0
8 9 47 0
-8 -9 -47 0
10 23 47 0
-10 -23 -47 0
11 38 47 0
-11 -38 -47 0
9 48 0
-9 -48 0
10 24 48 0
-10 -24 -48 0
11 39 48 0
-11 -39 -48 0
9 10 49 0
-9 -10 -49 0
10 25 49 0
-10 -25 -49 0
11 40 49 0
-11 -40 -49 0
9 11 50 0
-9 -11 -50 0
10 26 50 0
-10 -26 -50 0
11 41 50 0
-11 -41 -50 0
9 12 51 0
-9 -12 -51 0
10 27 51 0
-10 -27 -51 0
11 42 51 0
-11 -42 -51 0
9 13 52 0
-9 -13 -52 0
10 28 52 0
-10 -28 -52 0
11 43 52 0
-11 -43 -52 0
