certificates/rado_a15_c174_N52.drat
9 14 -51 -52 0
14 -51 -52 0
d 9 14 -51 -52 0
48 -14 -51 0
-14 -51 0
d -14 -15 -51 0
-51 -52 0
d 14 -51 -52 0
-48 -14 51 0
-14 -52 0
48 -52 0
-52 0
9 14 0
14 0
-50 0
-51 0
-48 0
9 0
-45 0
12 0
-6 0
-18 0
-20 0
-3 0
-8 0
-15 0
11 0
1 0
-2 0
-10 0
-47 0
-23 0
-5 0
-17 0
-21 0
-37 0
-40 0
-7 0
26 0
27 0
29 0
30 0
31 0
32 0
34 0
13 0
39 0
41 0
42 0
44 0
0
